### ---preamble--- ###

units micro
atom_style hybrid sphere paramagnet bond
boundary s s p
dimension 2
neighbor 4.0 nsq
pair_style lj/cut/dipole/cut 0 20
bond_style biharmonic

### ---Create Particles and Region--- ###
read_data ./test_lammps_scripts/test.lmpdata
group Atoms type 1
mass * 1
                
### ---Fixes--- ###

variable Bmag atom 2.6614538978577816e-05
variable omega atom 0.0
variable theta atom 0.0

variable fieldx atom v_Bmag*sin(v_omega*time)*sin(v_theta)
variable fieldy atom v_Bmag*cos(v_omega*time)*sin(v_theta)
variable fieldz atom v_Bmag*cos(v_theta)

fix 	1 Atoms bd 300 0.001 679259 

fix 	2 all enforce2d

fix     3 Atoms addforce 0 0 -0.0

fix 	4 Atoms setdipole v_fieldx v_fieldy v_fieldz 
 
### ---Run Commands--- ###
timestep 	10000.0 
dump 	3 all custom 100 test.lammpstrj id type x	 y	 z
thermo_style 	custom step atoms
thermo 	100  
run 	6000
                    